p tw 74 1183
0 1
0 2
0 3
0 4
0 5
0 6
0 7
0 8
0 9
0 22
0 24
0 28
0 45
0 46
0 48
0 56
0 58
0 59
0 60
0 61
0 10
0 39
0 47
0 52
0 54
0 65
0 66
0 67
0 68
0 13
0 18
0 26
0 29
0 34
0 35
0 50
0 64
0 11
0 40
0 42
0 43
0 49
0 12
0 21
0 33
0 36
0 37
0 51
0 16
0 62
0 69
0 31
0 57
1 2
1 3
1 4
1 5
1 6
1 7
1 8
1 9
1 14
1 22
1 24
1 30
1 39
1 48
1 49
1 50
1 51
1 52
1 53
1 12
1 27
1 40
1 54
1 62
1 63
1 64
1 11
1 44
1 56
1 60
1 67
1 70
1 21
1 43
1 55
1 71
1 73
1 16
1 29
1 42
1 69
1 32
1 41
1 59
2 3
2 4
2 5
2 6
2 7
2 8
2 9
2 12
2 27
2 40
2 54
2 62
2 63
2 64
2 24
2 32
2 41
2 44
2 51
2 53
2 55
2 59
3 4
3 5
3 6
3 7
3 8
3 9
3 10
3 11
3 12
3 13
3 14
3 15
3 16
3 17
3 27
3 40
3 54
3 62
3 63
3 64
3 20
3 22
3 32
3 36
3 41
3 65
3 70
3 18
3 24
3 38
3 43
3 44
3 45
3 50
3 55
3 51
3 53
3 59
4 5
4 6
4 7
4 8
4 9
4 10
4 11
4 12
4 13
4 14
4 15
4 16
4 17
4 20
4 27
4 31
4 53
4 54
4 55
4 56
4 57
4 58
4 22
4 32
4 36
4 41
4 65
4 70
4 19
4 52
4 68
4 71
4 21
4 43
4 44
4 73
4 40
4 42
4 49
5 6
5 7
5 8
5 9
5 10
5 11
5 12
5 13
5 14
5 15
5 16
5 17
5 28
5 29
5 30
5 31
5 32
5 33
5 20
5 27
5 53
5 54
5 55
5 56
5 57
5 58
5 40
5 62
5 63
5 64
5 39
5 47
5 52
5 65
5 66
5 67
5 68
5 18
5 26
5 46
5 60
5 69
5 21
5 22
5 43
5 44
5 71
5 73
5 42
5 19
5 24
5 45
5 48
5 59
6 7
6 8
6 9
6 20
6 21
6 22
6 45
6 49
6 53
6 56
6 59
6 71
6 72
6 13
6 19
6 52
6 65
6 68
6 16
6 29
6 39
6 42
6 62
6 69
7 8
7 9
7 10
7 11
7 13
7 16
7 28
7 29
7 30
7 31
7 32
7 33
7 44
7 52
7 56
7 60
7 64
7 67
7 70
7 12
7 20
7 22
7 36
7 41
7 65
7 18
7 26
7 34
7 35
7 46
7 50
7 40
7 42
7 43
7 49
7 58
8 9
8 11
8 40
8 42
8 43
8 49
8 52
8 58
8 18
8 24
8 38
8 44
8 45
8 50
8 55
8 62
8 63
8 12
8 21
8 26
8 33
8 36
8 37
8 51
8 61
8 68
9 10
9 11
9 12
9 13
9 14
9 15
9 16
9 17
9 20
9 25
9 41
9 42
9 43
9 44
9 45
9 46
9 47
9 21
9 22
9 55
9 71
9 73
9 29
9 39
9 62
9 69
10 11
10 12
10 13
10 14
10 15
10 16
10 17
10 28
10 29
10 30
10 31
10 32
10 33
10 39
10 47
10 52
10 54
10 58
10 65
10 66
10 67
10 68
10 18
10 26
10 46
10 57
10 60
10 62
10 69
11 12
11 13
11 14
11 15
11 16
11 17
11 28
11 29
11 30
11 31
11 32
11 33
11 20
11 25
11 41
11 42
11 43
11 44
11 45
11 46
11 47
11 52
11 56
11 60
11 64
11 67
11 70
11 40
11 49
11 58
11 21
11 26
11 37
11 53
11 57
11 63
12 13
12 14
12 15
12 16
12 17
12 21
12 22
12 27
12 34
12 35
12 36
12 37
12 38
12 39
12 40
12 54
12 62
12 63
12 64
12 20
12 32
12 41
12 65
12 70
12 18
12 26
12 33
12 51
12 61
12 68
13 14
13 15
13 16
13 17
13 28
13 29
13 30
13 31
13 32
13 33
13 19
13 22
13 52
13 65
13 68
13 71
13 18
13 26
13 34
13 35
13 46
13 50
13 64
14 15
14 16
14 17
14 22
14 24
14 30
14 39
14 48
14 49
14 50
14 51
14 52
14 53
14 21
14 26
14 37
14 57
14 63
15 16
15 17
15 18
15 19
15 20
15 21
15 22
15 23
15 24
15 25
15 26
15 27
15 33
15 42
15 44
15 46
15 65
16 17
16 28
16 29
16 30
16 31
16 32
16 33
16 18
16 26
16 46
16 52
16 57
16 60
16 62
16 66
16 69
16 39
16 42
17 20
17 25
17 41
17 42
17 43
17 44
17 45
17 46
17 47
17 19
17 24
17 27
17 48
17 56
17 59
17 62
17 69
18 19
18 20
18 21
18 22
18 23
18 24
18 25
18 26
18 27
18 46
18 52
18 57
18 60
18 62
18 66
18 69
18 29
18 34
18 35
18 50
18 64
18 65
18 38
18 43
18 44
18 45
18 55
18 63
18 33
18 36
18 37
18 51
18 61
18 68
19 20
19 21
19 22
19 23
19 24
19 25
19 26
19 27
19 52
19 65
19 68
19 71
19 45
19 48
19 56
19 59
19 62
19 69
20 21
20 22
20 23
20 24
20 25
20 26
20 27
20 41
20 42
20 43
20 44
20 45
20 46
20 47
20 31
20 53
20 54
20 55
20 56
20 57
20 58
20 32
20 36
20 65
20 70
20 49
20 59
20 71
20 72
21 22
21 23
21 24
21 25
21 26
21 27
21 34
21 35
21 36
21 37
21 38
21 39
21 40
21 45
21 49
21 53
21 56
21 59
21 71
21 72
21 43
21 44
21 55
21 73
21 33
21 51
21 61
21 68
21 57
21 63
22 23
22 24
22 25
22 26
22 27
22 34
22 35
22 36
22 37
22 38
22 39
22 40
22 30
22 48
22 49
22 50
22 51
22 52
22 53
22 28
22 45
22 46
22 56
22 58
22 59
22 60
22 61
22 32
22 41
22 65
22 70
22 71
22 72
22 68
22 43
22 44
22 55
22 73
22 33
22 42
22 31
22 57
23 24
23 25
23 26
23 27
23 33
23 42
23 44
23 46
23 65
24 25
24 26
24 27
24 30
24 39
24 48
24 49
24 50
24 51
24 52
24 53
24 28
24 45
24 46
24 56
24 58
24 59
24 60
24 61
24 38
24 43
24 44
24 55
24 62
24 63
24 32
24 41
24 69
24 31
24 57
24 65
25 26
25 27
25 41
25 42
25 43
25 44
25 45
25 46
25 47
26 27
26 46
26 52
26 57
26 60
26 62
26 66
26 69
26 29
26 34
26 35
26 50
26 64
26 65
26 33
26 36
26 37
26 51
26 61
26 68
26 42
26 44
26 53
26 63
27 34
27 35
27 36
27 37
27 38
27 39
27 40
27 31
27 53
27 54
27 55
27 56
27 57
27 58
27 62
27 63
27 64
27 45
27 48
27 59
27 69
28 29
28 30
28 31
28 32
28 33
28 45
28 46
28 48
28 56
28 58
28 59
28 60
28 61
28 57
28 65
29 30
29 31
29 32
29 33
29 34
29 35
29 46
29 50
29 64
29 65
29 39
29 42
29 62
29 69
30 31
30 32
30 33
30 39
30 48
30 49
30 50
30 51
30 52
30 53
30 44
30 56
30 60
30 64
30 67
30 70
31 32
31 33
31 53
31 54
31 55
31 56
31 57
31 58
31 48
31 65
32 33
32 36
32 41
32 65
32 70
32 44
32 51
32 53
32 55
32 59
32 62
33 36
33 37
33 51
33 61
33 68
33 42
33 44
33 46
33 65
34 35
34 36
34 37
34 38
34 39
34 40
34 46
34 50
34 64
34 65
35 36
35 37
35 38
35 39
35 40
35 46
35 50
35 64
35 65
36 37
36 38
36 39
36 40
36 41
36 65
36 70
36 51
36 61
36 68
37 38
37 39
37 40
37 51
37 61
37 68
37 53
37 57
37 63
38 39
38 40
38 43
38 44
38 45
38 50
38 55
38 62
38 63
39 40
39 48
39 49
39 50
39 51
39 52
39 53
39 47
39 54
39 58
39 65
39 66
39 67
39 68
39 42
39 62
39 69
40 54
40 62
40 63
40 64
40 42
40 43
40 49
40 52
40 58
41 42
41 43
41 44
41 45
41 46
41 47
41 65
41 70
41 51
41 53
41 55
41 59
41 62
42 43
42 44
42 45
42 46
42 47
42 49
42 52
42 58
42 62
42 69
42 65
43 44
43 45
43 46
43 47
43 55
43 71
43 73
43 49
43 52
43 58
43 50
43 62
43 63
44 45
44 46
44 47
44 52
44 56
44 60
44 64
44 67
44 70
44 55
44 71
44 73
44 50
44 62
44 63
44 51
44 53
44 59
44 65
45 46
45 47
45 48
45 56
45 58
45 59
45 60
45 61
45 49
45 53
45 71
45 72
45 50
45 55
45 62
45 63
45 69
46 47
46 48
46 56
46 58
46 59
46 60
46 61
46 52
46 57
46 62
46 66
46 69
46 50
46 64
46 65
47 52
47 54
47 58
47 65
47 66
47 67
47 68
48 49
48 50
48 51
48 52
48 53
48 56
48 58
48 59
48 60
48 61
48 62
48 69
48 57
48 65
49 50
49 51
49 52
49 53
49 56
49 59
49 71
49 72
49 58
50 51
50 52
50 53
50 64
50 65
50 55
50 62
50 63
51 52
51 53
51 61
51 68
51 55
51 59
51 62
52 53
52 54
52 58
52 65
52 66
52 67
52 68
52 57
52 60
52 62
52 69
52 56
52 64
52 70
52 71
53 54
53 55
53 56
53 57
53 58
53 59
53 71
53 72
53 62
53 63
54 55
54 56
54 57
54 58
54 62
54 63
54 64
54 65
54 66
54 67
54 68
55 56
55 57
55 58
55 71
55 73
55 62
55 63
55 59
56 57
56 58
56 59
56 60
56 61
56 64
56 67
56 70
56 71
56 72
56 62
56 69
57 58
57 60
57 62
57 66
57 69
57 63
57 65
58 59
58 60
58 61
58 65
58 66
58 67
58 68
59 60
59 61
59 71
59 72
59 62
59 69
60 61
60 62
60 66
60 69
60 64
60 67
60 70
61 68
62 63
62 64
62 66
62 69
63 64
64 67
64 70
64 65
65 66
65 67
65 68
65 70
65 71
66 67
66 68
66 69
67 68
67 70
68 71
71 72
71 73
